NAME : KROC99A
TYPE : PDTSP
DIMENSION : 99
EDGE_WEIGHT_TYPE : EUC_2D
NODE_COORD_SECTION
1 1357 1905
2 2650 802
3 1774 107
4 1307 964
5 3806 746
6 2687 1353
7 43 1957
8 3092 1668
9 185 1542
10 834 629
11 40 462
12 1183 1391
13 2048 1628
14 1097 643
15 1838 1732
16 234 1118
17 3314 1881
18 737 1285
19 779 777
20 2312 1949
21 2576 189
22 3078 1541
23 2781 478
24 705 1812
25 3409 1917
26 323 1714
27 1660 1556
28 3729 1188
29 693 1383
30 2361 640
31 2433 1538
32 554 1825
33 913 317
34 3586 1909
35 2636 727
36 1000 457
37 482 1337
38 3704 1082
39 3635 1174
40 1362 1526
41 2049 417
42 2552 1909
43 3939 640
44 219 898
45 812 351
46 901 1552
47 2513 1572
48 242 584
49 826 1226
50 3278 799
51 86 1065
52 14 454
53 1327 1893
54 2773 1286
55 2469 1838
56 3835 963
57 1031 428
58 3853 1712
59 1868 197
60 1544 863
61 457 1607
62 3174 1064
63 192 1004
64 2318 1925
65 2232 1374
66 396 828
67 2365 1649
68 2499 658
69 1410 307
70 2990 214
71 3646 1018
72 3394 1028
73 1058 372
74 2933 1459
75 3099 173
76 2178 978
77 138 1610
78 2082 1753
79 2302 1127
80 805 272
81 22 1617
82 3213 1085
83 99 536
84 1533 1780
85 3564 676
86 29 6
87 3808 1375
88 2221 291
89 3499 1885
90 3124 408
91 781 671
92 1027 1041
93 3249 378
94 3297 491
95 213 220
96 721 186
97 3736 1542
98 868 731
99 960 303
PICKUP_AND_DELIVERY_SECTION
1 0 0 0 0 0 0
2 0 0 0 0 0 76
3 0 0 0 0 21 0
4 0 0 0 0 0 12
5 0 0 0 0 43 0
6 0 0 0 0 0 64
7 0 0 0 0 0 61
8 0 0 0 0 41 0
9 0 0 0 0 0 16
10 0 0 0 0 0 80
11 0 0 0 0 19 0
12 0 0 0 0 4 0
13 0 0 0 0 67 0
14 0 0 0 0 0 59
15 0 0 0 0 0 84
16 0 0 0 0 9 0
17 0 0 0 0 58 0
18 0 0 0 0 0 92
19 0 0 0 0 0 11
20 0 0 0 0 78 0
21 0 0 0 0 0 3
22 0 0 0 0 47 0
23 0 0 0 0 90 0
24 0 0 0 0 0 40
25 0 0 0 0 89 0
26 0 0 0 0 95 0
27 0 0 0 0 53 0
28 0 0 0 0 56 0
29 0 0 0 0 0 32
30 0 0 0 0 0 88
31 0 0 0 0 42 0
32 0 0 0 0 29 0
33 0 0 0 0 0 99
34 0 0 0 0 71 0
35 0 0 0 0 68 0
36 0 0 0 0 0 73
37 0 0 0 0 77 0
38 0 0 0 0 87 0
39 0 0 0 0 0 62
40 0 0 0 0 24 0
41 0 0 0 0 0 8
42 0 0 0 0 0 31
43 0 0 0 0 0 5
44 0 0 0 0 66 0
45 0 0 0 0 0 86
46 0 0 0 0 49 0
47 0 0 0 0 0 22
48 0 0 0 0 63 0
49 0 0 0 0 0 46
50 0 0 0 0 0 94
51 0 0 0 0 81 0
52 0 0 0 0 83 0
53 0 0 0 0 0 27
54 0 0 0 0 0 97
55 0 0 0 0 65 0
56 0 0 0 0 0 28
57 0 0 0 0 0 60
58 0 0 0 0 0 17
59 0 0 0 0 14 0
60 0 0 0 0 57 0
61 0 0 0 0 7 0
62 0 0 0 0 39 0
63 0 0 0 0 0 48
64 0 0 0 0 6 0
65 0 0 0 0 0 55
66 0 0 0 0 0 44
67 0 0 0 0 0 13
68 0 0 0 0 0 35
69 0 0 0 0 98 0
70 0 0 0 0 85 0
71 0 0 0 0 0 34
72 0 0 0 0 0 82
73 0 0 0 0 36 0
74 0 0 0 0 0 79
75 0 0 0 0 0 93
76 0 0 0 0 2 0
77 0 0 0 0 0 37
78 0 0 0 0 0 20
79 0 0 0 0 74 0
80 0 0 0 0 10 0
81 0 0 0 0 0 51
82 0 0 0 0 72 0
83 0 0 0 0 0 52
84 0 0 0 0 15 0
85 0 0 0 0 0 70
86 0 0 0 0 45 0
87 0 0 0 0 0 38
88 0 0 0 0 30 0
89 0 0 0 0 0 25
90 0 0 0 0 0 23
91 0 0 0 0 96 0
92 0 0 0 0 18 0
93 0 0 0 0 75 0
94 0 0 0 0 50 0
95 0 0 0 0 0 26
96 0 0 0 0 0 91
97 0 0 0 0 54 0
98 0 0 0 0 0 69
99 0 0 0 0 33 0
DEPOT_SECTION
1 
-1
EOF
